NAME : rnd29_50.tsp.tsp.optbc.tour
TYPE : TOUR
DIMENSION : 50
TOUR_SECTION
1
37
28
34
13
25
33
32
49
48
11
23
7
16
14
29
24
21
10
42
38
46
3
5
35
27
4
30
18
31
2
12
6
22
45
39
43
20
36
17
41
44
15
9
47
19
8
50
40
26
-1